StudentsNr = 10;
InstructorsNr = 80;
DaysNr = 1;
SlotsPerDay = 10;
AvailabilitySlotsLenght = 2;
RoomNr = 2;
ProgrammNr = 1;
DegreeNr = 3;
RolesNr = 2;
CoursesNr = 9;
InstructorsProgramm = [{1}, {1}, {1}, {1}, {1}, {1}, {1}, {1}, {1}, {1}, {1}, {1}, {1}, {1}, {1}, {1}, {1}, {1}, {1}, {1}, {1}, {1}, {1}, {1}, {1}, {1}, {1}, {1}, {1}, {1}, {1}, {1}, {1}, {1}, {1}, {1}, {1}, {1}, {1}, {1}, {1}, {1}, {1}, {1}, {1}, {1}, {1}, {1}, {1}, {1}, {1}, {1}, {1}, {1}, {1}, {1}, {1}, {1}, {1}, {1}, {1}, {1}, {1}, {1}, {1}, {1}, {1}, {1}, {1}, {1}, {1}, {1}, {1}, {1}, {1}, {1}, {1}, {1}, {1}, {1}];
InstructorRolesPerProgramm = [|{1, 2, 3, 5, 6, 12, 13, 14, 15, 20, 23, 26, 27, 28, 29, 30, 32, 33, 34, 35, 37, 38, 39, 43, 44, 45, 47, 50, 55, 57, 60, 65, 67, 69, 71, 72, 74, 75, 76, 78, 79}, {1, 2, 4, 9, 11, 13, 14, 16, 18, 22, 24, 25, 27, 28, 30, 31, 32, 33, 34, 36, 37, 39, 41, 42, 43, 45, 46, 50, 51, 52, 53, 55, 59, 61, 63, 65, 67, 69, 70, 73, 78}|];
InstructorsAvailability = [|0, 1, 1, 1, 1, |0, 1, 1, 1, 0, |0, 0, 1, 1, 1, |0, 0, 1, 1, 1, |1, 1, 1, 1, 1, |0, 1, 0, 1, 1, |1, 1, 1, 0, 1, |0, 1, 0, 1, 1, |0, 0, 1, 1, 1, |0, 1, 1, 0, 0, |0, 0, 1, 1, 1, |1, 1, 0, 1, 1, |0, 1, 0, 0, 0, |0, 1, 1, 1, 1, |1, 1, 1, 1, 1, |1, 0, 0, 1, 0, |0, 0, 0, 1, 0, |0, 1, 1, 1, 1, |1, 1, 1, 1, 1, |1, 1, 1, 1, 1, |0, 1, 1, 1, 1, |0, 1, 1, 1, 1, |0, 1, 1, 1, 1, |0, 1, 1, 1, 1, |0, 0, 0, 0, 1, |1, 1, 1, 0, 1, |0, 1, 0, 1, 1, |0, 0, 1, 1, 0, |1, 0, 1, 1, 0, |0, 1, 1, 0, 1, |0, 0, 1, 1, 1, |1, 1, 1, 1, 1, |1, 0, 1, 1, 0, |0, 1, 1, 0, 1, |1, 1, 1, 1, 0, |0, 1, 0, 1, 1, |0, 1, 1, 1, 1, |1, 0, 1, 1, 1, |0, 1, 1, 1, 1, |1, 1, 1, 1, 1, |0, 1, 1, 1, 1, |0, 1, 1, 1, 1, |1, 1, 1, 1, 1, |0, 1, 1, 1, 1, |1, 1, 1, 1, 1, |1, 0, 0, 0, 0, |1, 1, 1, 1, 1, |1, 1, 1, 1, 1, |1, 1, 1, 1, 1, |1, 1, 1, 1, 1, |0, 0, 1, 0, 0, |0, 0, 1, 1, 1, |1, 1, 1, 1, 0, |0, 1, 1, 1, 1, |0, 0, 1, 1, 1, |1, 1, 1, 1, 1, |0, 1, 1, 1, 0, |1, 1, 1, 1, 1, |1, 1, 1, 1, 1, |1, 1, 1, 1, 1, |1, 0, 0, 1, 1, |0, 0, 1, 0, 0, |0, 1, 1, 1, 1, |1, 1, 1, 1, 1, |1, 0, 0, 1, 1, |0, 1, 0, 1, 0, |1, 1, 1, 1, 1, |1, 1, 1, 0, 1, |1, 1, 1, 1, 1, |0, 1, 1, 0, 1, |0, 0, 0, 0, 1, |1, 1, 1, 1, 1, |0, 1, 1, 1, 0, |1, 1, 1, 1, 1, |0, 1, 1, 1, 1, |1, 1, 1, 1, 1, |1, 1, 0, 1, 1, |0, 0, 0, 1, 1, |0, 1, 1, 1, 0, |1, 1, 0, 1, 1|];
StudentsProgramm = [1, 1, 1, 1, 1, 1, 1, 1, 1, 1];
StudentsDegree = [2, 3, 3, 3, 3, 1, 2, 1, 2, 3];
StudentsSupervisorId = [72, 57, 25, 76, 46, 80, 54, 15, 62, 39];
StudentsCourseIds = [{1, 2, 8}, {1, 4, 6, 8, 9}, {3, 5, 7, 8, 9}, {1, 2, 4, 6, 8}, {2, 3, 4, 8, 9}, {8}, {3, 5, 6}, {1}, {4, 7, 8}, {1, 3, 4, 8, 9}];
StudentsAvailability = [|0, 1, 1, 1, 0, |1, 1, 1, 1, 1, |0, 1, 1, 1, 1, |0, 1, 1, 1, 1, |1, 1, 1, 0, 0, |0, 1, 1, 1, 1, |0, 0, 1, 1, 1, |0, 1, 1, 1, 1, |0, 1, 1, 1, 1, |0, 0, 1, 1, 1|];
TheoryticalMinCard = [0, 0, 0, 0, 0, 1, 0, 0, 0, 0];
CoursesInstructorIds = [{2, 5, 6, 9, 14, 15, 16, 17, 18, 19, 20, 26, 27, 29, 30, 31, 32, 35, 49, 50, 51, 53, 54, 55, 60, 61, 63, 64, 68, 71, 72, 73, 74, 77, 78, 80}, {2, 3, 5, 6, 15, 17, 20, 21, 22, 23, 24, 26, 28, 29, 30, 31, 33, 34, 36, 40, 41, 42, 45, 48, 51, 53, 56, 57, 58, 59, 60, 61, 65, 66, 67, 69, 71, 72, 74, 75, 80}, {1, 4, 5, 6, 9, 14, 17, 20, 21, 24, 26, 33, 34, 39, 40, 42, 45, 46, 47, 50, 51, 53, 58, 60, 61, 64, 65, 68, 69, 72, 75, 77, 78}, {3, 5, 7, 10, 13, 14, 32, 35, 36, 38, 51, 58, 59, 62, 63, 65, 69, 75, 79}, {4, 6, 7, 12, 14, 17, 19, 22, 24, 25, 27, 31, 32, 34, 39, 48, 51, 53, 55, 56, 63, 64, 67, 69, 70, 71, 72, 74, 76, 78, 80}, {4, 5, 7, 8, 12, 20, 22, 24, 28, 33, 35, 36, 38, 41, 42, 44, 46, 48, 49, 54, 56, 58, 60, 62, 63, 64, 67, 68, 69, 75, 76, 77, 79, 80}, {6, 11, 14, 32, 40, 43, 45, 77, 78}, {14, 17, 21, 23, 26, 27, 31, 38, 43, 47, 51, 61, 63, 65, 75}, {3, 5, 9, 11, 12, 13, 14, 17, 18, 19, 20, 21, 25, 28, 34, 36, 41, 43, 44, 46, 47, 49, 51, 52, 57, 60, 61, 64, 66, 70, 72, 73, 77, 79}];
RolesDemands = [39, 22];
RolesContinuity = [1];
ExamLen = [1, 2, 2, 2, 2, 2, 1, 2, 1, 2];
LunchTsMinLen = 1;
LunchStarts = [3..6];
SupervisorAvailable = 5;
OptimalLunchLenght = [3, 1];
OptimalStartTs = [2, 0];
OptimalFinishTs = [1, 10];
MinimizeRooms = 100;
RolesSoftContinuity = [|1, 2|4, 4|];
SameDegreeInRoom = 0;
Mergeability = 2;
